c This is QMaxSAT 2017 based on 14.07
c This is Glucose 3.0
c This is MiniSat 2.2.0
c WARNING: for repeatability, setting FPU to use double precision
c card = mrwto, comp = 0, pmodel = 0, narr = 6, mct = 29, verb = 0
cr firstCPXsol 0 0 0
c top = 167313
c |  Number of variables:    26214                                            |
c |  Number of clauses:      8279948                                          |
c |  Weight of hard clauses: 167313                                           |
c |  Number of soft clauses: 4872                                             |
c |  Number of unit soft clauses: 4872                                        |
c |  Maximum Cardinality (by unit): 1003872      (1003872     )               |
c last restart ## conflicts  :  15 1632 
o 2363 | cpuTime 3.77021 s
c Sum of weights = 167312
c A number of soft clauses remained = 812
c MRWTO encoding for Pseudo-Boolean Constraints
c sizeMax=2363
c No.0 Divisor=14	generated by pow1
c No.1 Divisor=14	generated by pow1
c No.2 Divisor=14	generated by pow1
c p0= 14	p1= 14	p2= 14	
c number of digits = 4
c linkingVar[0].size = 14, linkingVar[1].size = 14, linkingVar[2].size = 13, linkingVar[3].size = 1, 
c Pseudo-Boolean Constraints: 20103 variables and 227939 clauses
c Sum of weights = 167312
c A number of soft clauses remained = 812
c MRWTO encoding for Pseudo-Boolean Constraints
c sizeMax=2363
c No.0 Divisor=14	generated by pow1
c No.1 Divisor=14	generated by pow1
c No.2 Divisor=14	generated by pow1
c p0= 14	p1= 14	p2= 14	
c number of digits = 4
c linkingVar[0].size = 14, linkingVar[1].size = 14, linkingVar[2].size = 13, linkingVar[3].size = 1, 
c Pseudo-Boolean Constraints: 20103 variables and 227939 clauses
c Sum of weights = 167312
c A number of soft clauses remained = 812
c MRWTO encoding for Pseudo-Boolean Constraints
c sizeMax=2363
c No.0 Divisor=14	generated by pow1
c No.1 Divisor=14	generated by pow1
c No.2 Divisor=14	generated by pow1
c p0= 14	p1= 14	p2= 14	
c number of digits = 4
c linkingVar[0].size = 14, linkingVar[1].size = 14, linkingVar[2].size = 13, linkingVar[3].size = 1, 
c Pseudo-Boolean Constraints: 20103 variables and 227939 clauses
c Sum of weights = 167312
c A number of soft clauses remained = 812
c MRWTO encoding for Pseudo-Boolean Constraints
c sizeMax=2363
c No.0 Divisor=14	generated by pow1
c No.1 Divisor=14	generated by pow1
c No.2 Divisor=14	generated by pow1
c p0= 14	p1= 14	p2= 14	
c number of digits = 4
c linkingVar[0].size = 14, linkingVar[1].size = 14, linkingVar[2].size = 13, linkingVar[3].size = 1, 
c Pseudo-Boolean Constraints: 20103 variables and 227939 clauses
c Sum of weights = 167312
c A number of soft clauses remained = 812
c MRWTO encoding for Pseudo-Boolean Constraints
c sizeMax=2363
c No.0 Divisor=14	generated by pow1
c No.1 Divisor=14	generated by pow1
c No.2 Divisor=14	generated by pow1
c p0= 14	p1= 14	p2= 14	
c number of digits = 4
c linkingVar[0].size = 14, linkingVar[1].size = 14, linkingVar[2].size = 13, linkingVar[3].size = 1, 
c Pseudo-Boolean Constraints: 20103 variables and 227939 clauses
c Sum of weights = 167312
c A number of soft clauses remained = 812
c MRWTO encoding for Pseudo-Boolean Constraints
c sizeMax=2363
c No.0 Divisor=14	generated by pow1
c No.1 Divisor=14	generated by pow1
c No.2 Divisor=14	generated by pow1
c p0= 14	p1= 14	p2= 14	
c number of digits = 4
c linkingVar[0].size = 14, linkingVar[1].size = 14, linkingVar[2].size = 13, linkingVar[3].size = 1, 
c Pseudo-Boolean Constraints: 20103 variables and 227939 clauses
c last restart ## conflicts  :  137 6439 
o 1981 | cpuTime 41.6131 s
c last restart ## conflicts  :  961 5762 
o 1954 | cpuTime 51.0822 s
c last restart ## conflicts  :  204 12381 
o 1901 | cpuTime 53.6664 s
c last restart ## conflicts  :  1271 5785 
o 1810 | cpuTime 58.4635 s
c last restart ## conflicts  :  338 6968 
o 1653 | cpuTime 60.8176 s
c last restart ## conflicts  :  455 4370 
o 1436 | cpuTime 66.0252 s
c last restart ## conflicts  :  1 6418 
o 1282 | cpuTime 68.6514 s
c last restart ## conflicts  :  201 3622 
o 1169 | cpuTime 74.7913 s
c last restart ## conflicts  :  162 4425 
o 1135 | cpuTime 81.2954 s
c last restart ## conflicts  :  145 3853 
o 1003 | cpuTime 90.6487 s
c last restart ## conflicts  :  560 2456 
o 982 | cpuTime 114.617 s
c last restart ## conflicts  :  1054 2404 
o 949 | cpuTime 191.285 s
c last restart ## conflicts  :  25 3605 
o 944 | cpuTime 209.811 s
c last restart ## conflicts  :  717 2941 
o 916 | cpuTime 223.021 s
c last restart ## conflicts  :  153 2905 
o 912 | cpuTime 550.202 s
c last restart ## conflicts  :  3422 4895 
o 897 | cpuTime 683.76 s
c last restart ## conflicts  :  27 4234 
o 863 | cpuTime 2259.92 s
c last restart ## conflicts  :  1203 3259 
o 845 | cpuTime 2845.79 s
c last restart ## conflicts  :  135 11597 
o 829 | cpuTime 2845.92 s
c last restart ## conflicts  :  9 3411 
o 821 | cpuTime 3496.65 s
c last restart ## conflicts  :  59 24047 
o 807 | cpuTime 3496.71 s
s UNKNOWN
c Search is stopped by a limit (maybe time-limit)
cr positiVarArr: [ | 10@1(1->10) | 102@1(4->15) | 281@1(10->20) | 378@1(14->1) | 420@1(15->14) | 555@1(20->4) | 852@2(1->11) | 1153@2(11->22) | 1190@2(13->1) | 1323@2(17->18) | 1347@2(18->13) | 1467@2(22->17) | 1689@3(1->7) | 1881@3(7->25) | 2379@3(25->1) | 2539@4(1->16) | 2870@4(12->28) | 2981@4(16->23) | 3188@4(23->27) | 3289@4(27->12) | 3307@4(28->1) | 3369@5(1->5) | 3428@5(3->6) | 3501@5(5->21) | 3510@5(6->1) | 3970@5(21->26) | 4118@5(26->29) | 4179@5(29->3) | 4214@6(1->9) | 4253@6(2->19) | 4409@6(8->1) | 4439@6(9->2) | 4751@6(19->24) | 4880@6(24->8) | ]
cr the 1-th chain: [ 1->10->20->4->15->14->1 ] (#non-depot=5) {#cumul.=6}
cr the 2-th chain: [ 1->11->22->17->18->13->1 ] (#non-depot=5) {#cumul.=11}
cr the 3-th chain: [ 1->7->25->1 ] (#non-depot=2) {#cumul.=13}
cr the 4-th chain: [ 1->16->23->27->12->28->1 ] (#non-depot=5) {#cumul.=18}
cr the 5-th chain: [ 1->5->21->26->29->3->6->1 ] (#non-depot=6) {#cumul.=24}
cr the 6-th chain: [ 1->9->2->19->24->8->1 ] (#non-depot=5) {#cumul.=29}
c Latest Answer = 0 by 22 loops
c restarts              : 27158
c conflicts             : 10413951       (2903 /sec)
c decisions             : 71820681       (0.00 % random) (20019 /sec)
c propagations          : 24465901204    (6819389 /sec)
c conflict literals     : 4244989111     (42.48 % deleted)
c Memory used           : 1601.00 MB
c CPU time              : 3587.7 s
